p cnf 183 720
1 2 3 4 5 6 7 8 9 10 11 12 13 14 15 16 17 18 19 0
75 76 77 78 79 80 81 82 83 84 85 86 87 88 89 90 91 92 0
109 110 111 112 113 114 115 116 117 118 119 120 121 122 123 124 125 126 127 0
128 129 130 131 132 133 134 135 136 137 138 139 140 141 142 143 144 145 146 0
147 148 149 150 151 152 153 154 155 156 157 158 159 160 161 162 163 164 0
165 166 167 168 169 170 171 172 173 174 175 176 177 178 179 180 181 182 183 0
-1 -20 0
-1 -37 0
-1 -55 0
-1 -75 0
-1 -93 0
-1 -109 0
-1 -128 0
-1 -165 0
-20 -37 0
-20 -55 0
-20 -75 0
-20 -93 0
-20 -109 0
-20 -128 0
-20 -165 0
-37 -55 0
-37 -75 0
-37 -93 0
-37 -109 0
-37 -128 0
-37 -165 0
-55 -75 0
-55 -93 0
-55 -109 0
-55 -128 0
-55 -165 0
-75 -93 0
-75 -109 0
-75 -128 0
-75 -165 0
-93 -109 0
-93 -128 0
-93 -165 0
-109 -128 0
-109 -165 0
-128 -165 0
-2 -38 0
-2 -56 0
-2 -76 0
-2 -94 0
-2 -110 0
-2 -129 0
-2 -147 0
-2 -166 0
-38 -56 0
-38 -76 0
-38 -94 0
-38 -110 0
-38 -129 0
-38 -147 0
-38 -166 0
-56 -76 0
-56 -94 0
-56 -110 0
-56 -129 0
-56 -147 0
-56 -166 0
-76 -94 0
-76 -110 0
-76 -129 0
-76 -147 0
-76 -166 0
-94 -110 0
-94 -129 0
-94 -147 0
-94 -166 0
-110 -129 0
-110 -147 0
-110 -166 0
-129 -147 0
-129 -166 0
-147 -166 0
-3 -21 0
-3 -39 0
-3 -57 0
-3 -77 0
-3 -95 0
-3 -111 0
-3 -130 0
-3 -148 0
-3 -167 0
-21 -39 0
-21 -57 0
-21 -77 0
-21 -95 0
-21 -111 0
-21 -130 0
-21 -148 0
-21 -167 0
-39 -57 0
-39 -77 0
-39 -95 0
-39 -111 0
-39 -130 0
-39 -148 0
-39 -167 0
-57 -77 0
-57 -95 0
-57 -111 0
-57 -130 0
-57 -148 0
-57 -167 0
-77 -95 0
-77 -111 0
-77 -130 0
-77 -148 0
-77 -167 0
-95 -111 0
-95 -130 0
-95 -148 0
-95 -167 0
-111 -130 0
-111 -148 0
-111 -167 0
-130 -148 0
-130 -167 0
-148 -167 0
-58 -78 0
-58 -112 0
-58 -131 0
-58 -149 0
-58 -168 0
-78 -112 0
-78 -131 0
-78 -149 0
-78 -168 0
-112 -131 0
-112 -149 0
-112 -168 0
-131 -149 0
-131 -168 0
-149 -168 0
-4 -22 0
-4 -40 0
-4 -59 0
-4 -79 0
-4 -96 0
-4 -113 0
-4 -150 0
-4 -169 0
-22 -40 0
-22 -59 0
-22 -79 0
-22 -96 0
-22 -113 0
-22 -150 0
-22 -169 0
-40 -59 0
-40 -79 0
-40 -96 0
-40 -113 0
-40 -150 0
-40 -169 0
-59 -79 0
-59 -96 0
-59 -113 0
-59 -150 0
-59 -169 0
-79 -96 0
-79 -113 0
-79 -150 0
-79 -169 0
-96 -113 0
-96 -150 0
-96 -169 0
-113 -150 0
-113 -169 0
-150 -169 0
-5 -23 0
-5 -41 0
-5 -80 0
-5 -97 0
-5 -114 0
-5 -132 0
-5 -151 0
-5 -170 0
-23 -41 0
-23 -80 0
-23 -97 0
-23 -114 0
-23 -132 0
-23 -151 0
-23 -170 0
-41 -80 0
-41 -97 0
-41 -114 0
-41 -132 0
-41 -151 0
-41 -170 0
-80 -97 0
-80 -114 0
-80 -132 0
-80 -151 0
-80 -170 0
-97 -114 0
-97 -132 0
-97 -151 0
-97 -170 0
-114 -132 0
-114 -151 0
-114 -170 0
-132 -151 0
-132 -170 0
-151 -170 0
-6 -24 0
-6 -42 0
-6 -60 0
-6 -81 0
-6 -98 0
-6 -115 0
-6 -133 0
-6 -152 0
-6 -171 0
-24 -42 0
-24 -60 0
-24 -81 0
-24 -98 0
-24 -115 0
-24 -133 0
-24 -152 0
-24 -171 0
-42 -60 0
-42 -81 0
-42 -98 0
-42 -115 0
-42 -133 0
-42 -152 0
-42 -171 0
-60 -81 0
-60 -98 0
-60 -115 0
-60 -133 0
-60 -152 0
-60 -171 0
-81 -98 0
-81 -115 0
-81 -133 0
-81 -152 0
-81 -171 0
-98 -115 0
-98 -133 0
-98 -152 0
-98 -171 0
-115 -133 0
-115 -152 0
-115 -171 0
-133 -152 0
-133 -171 0
-152 -171 0
-7 -25 0
-7 -43 0
-7 -61 0
-7 -82 0
-7 -99 0
-7 -134 0
-7 -153 0
-7 -172 0
-25 -43 0
-25 -61 0
-25 -82 0
-25 -99 0
-25 -134 0
-25 -153 0
-25 -172 0
-43 -61 0
-43 -82 0
-43 -99 0
-43 -134 0
-43 -153 0
-43 -172 0
-61 -82 0
-61 -99 0
-61 -134 0
-61 -153 0
-61 -172 0
-82 -99 0
-82 -134 0
-82 -153 0
-82 -172 0
-99 -134 0
-99 -153 0
-99 -172 0
-134 -153 0
-134 -172 0
-153 -172 0
-8 -26 0
-8 -44 0
-8 -62 0
-8 -83 0
-8 -135 0
-8 -154 0
-8 -173 0
-26 -44 0
-26 -62 0
-26 -83 0
-26 -135 0
-26 -154 0
-26 -173 0
-44 -62 0
-44 -83 0
-44 -135 0
-44 -154 0
-44 -173 0
-62 -83 0
-62 -135 0
-62 -154 0
-62 -173 0
-83 -135 0
-83 -154 0
-83 -173 0
-135 -154 0
-135 -173 0
-154 -173 0
-45 -63 0
-45 -84 0
-45 -100 0
-45 -116 0
-45 -136 0
-45 -155 0
-45 -174 0
-63 -84 0
-63 -100 0
-63 -116 0
-63 -136 0
-63 -155 0
-63 -174 0
-84 -100 0
-84 -116 0
-84 -136 0
-84 -155 0
-84 -174 0
-100 -116 0
-100 -136 0
-100 -155 0
-100 -174 0
-116 -136 0
-116 -155 0
-116 -174 0
-136 -155 0
-136 -174 0
-155 -174 0
-9 -27 0
-9 -46 0
-9 -64 0
-9 -85 0
-9 -117 0
-9 -137 0
-9 -156 0
-27 -46 0
-27 -64 0
-27 -85 0
-27 -117 0
-27 -137 0
-27 -156 0
-46 -64 0
-46 -85 0
-46 -117 0
-46 -137 0
-46 -156 0
-64 -85 0
-64 -117 0
-64 -137 0
-64 -156 0
-85 -117 0
-85 -137 0
-85 -156 0
-117 -137 0
-117 -156 0
-137 -156 0
-10 -28 0
-10 -65 0
-10 -86 0
-10 -101 0
-10 -118 0
-10 -138 0
-10 -157 0
-10 -175 0
-28 -65 0
-28 -86 0
-28 -101 0
-28 -118 0
-28 -138 0
-28 -157 0
-28 -175 0
-65 -86 0
-65 -101 0
-65 -118 0
-65 -138 0
-65 -157 0
-65 -175 0
-86 -101 0
-86 -118 0
-86 -138 0
-86 -157 0
-86 -175 0
-101 -118 0
-101 -138 0
-101 -157 0
-101 -175 0
-118 -138 0
-118 -157 0
-118 -175 0
-138 -157 0
-138 -175 0
-157 -175 0
-11 -29 0
-11 -47 0
-11 -66 0
-11 -87 0
-11 -119 0
-11 -139 0
-11 -176 0
-29 -47 0
-29 -66 0
-29 -87 0
-29 -119 0
-29 -139 0
-29 -176 0
-47 -66 0
-47 -87 0
-47 -119 0
-47 -139 0
-47 -176 0
-66 -87 0
-66 -119 0
-66 -139 0
-66 -176 0
-87 -119 0
-87 -139 0
-87 -176 0
-119 -139 0
-119 -176 0
-139 -176 0
-12 -30 0
-12 -48 0
-12 -67 0
-12 -102 0
-12 -120 0
-12 -140 0
-12 -158 0
-12 -177 0
-30 -48 0
-30 -67 0
-30 -102 0
-30 -120 0
-30 -140 0
-30 -158 0
-30 -177 0
-48 -67 0
-48 -102 0
-48 -120 0
-48 -140 0
-48 -158 0
-48 -177 0
-67 -102 0
-67 -120 0
-67 -140 0
-67 -158 0
-67 -177 0
-102 -120 0
-102 -140 0
-102 -158 0
-102 -177 0
-120 -140 0
-120 -158 0
-120 -177 0
-140 -158 0
-140 -177 0
-158 -177 0
-13 -31 0
-13 -49 0
-13 -68 0
-13 -88 0
-13 -121 0
-13 -141 0
-13 -159 0
-31 -49 0
-31 -68 0
-31 -88 0
-31 -121 0
-31 -141 0
-31 -159 0
-49 -68 0
-49 -88 0
-49 -121 0
-49 -141 0
-49 -159 0
-68 -88 0
-68 -121 0
-68 -141 0
-68 -159 0
-88 -121 0
-88 -141 0
-88 -159 0
-121 -141 0
-121 -159 0
-141 -159 0
-14 -32 0
-14 -50 0
-14 -69 0
-14 -103 0
-14 -122 0
-14 -142 0
-14 -160 0
-14 -178 0
-32 -50 0
-32 -69 0
-32 -103 0
-32 -122 0
-32 -142 0
-32 -160 0
-32 -178 0
-50 -69 0
-50 -103 0
-50 -122 0
-50 -142 0
-50 -160 0
-50 -178 0
-69 -103 0
-69 -122 0
-69 -142 0
-69 -160 0
-69 -178 0
-103 -122 0
-103 -142 0
-103 -160 0
-103 -178 0
-122 -142 0
-122 -160 0
-122 -178 0
-142 -160 0
-142 -178 0
-160 -178 0
-15 -33 0
-15 -51 0
-15 -70 0
-15 -89 0
-15 -104 0
-15 -123 0
-15 -143 0
-15 -161 0
-15 -179 0
-33 -51 0
-33 -70 0
-33 -89 0
-33 -104 0
-33 -123 0
-33 -143 0
-33 -161 0
-33 -179 0
-51 -70 0
-51 -89 0
-51 -104 0
-51 -123 0
-51 -143 0
-51 -161 0
-51 -179 0
-70 -89 0
-70 -104 0
-70 -123 0
-70 -143 0
-70 -161 0
-70 -179 0
-89 -104 0
-89 -123 0
-89 -143 0
-89 -161 0
-89 -179 0
-104 -123 0
-104 -143 0
-104 -161 0
-104 -179 0
-123 -143 0
-123 -161 0
-123 -179 0
-143 -161 0
-143 -179 0
-161 -179 0
-16 -34 0
-16 -52 0
-16 -71 0
-16 -105 0
-16 -124 0
-16 -144 0
-16 -162 0
-16 -180 0
-34 -52 0
-34 -71 0
-34 -105 0
-34 -124 0
-34 -144 0
-34 -162 0
-34 -180 0
-52 -71 0
-52 -105 0
-52 -124 0
-52 -144 0
-52 -162 0
-52 -180 0
-71 -105 0
-71 -124 0
-71 -144 0
-71 -162 0
-71 -180 0
-105 -124 0
-105 -144 0
-105 -162 0
-105 -180 0
-124 -144 0
-124 -162 0
-124 -180 0
-144 -162 0
-144 -180 0
-162 -180 0
-17 -35 0
-17 -72 0
-17 -90 0
-17 -106 0
-17 -125 0
-17 -145 0
-17 -163 0
-17 -181 0
-35 -72 0
-35 -90 0
-35 -106 0
-35 -125 0
-35 -145 0
-35 -163 0
-35 -181 0
-72 -90 0
-72 -106 0
-72 -125 0
-72 -145 0
-72 -163 0
-72 -181 0
-90 -106 0
-90 -125 0
-90 -145 0
-90 -163 0
-90 -181 0
-106 -125 0
-106 -145 0
-106 -163 0
-106 -181 0
-125 -145 0
-125 -163 0
-125 -181 0
-145 -163 0
-145 -181 0
-163 -181 0
-18 -53 0
-18 -73 0
-18 -91 0
-18 -107 0
-18 -126 0
-18 -146 0
-18 -182 0
-53 -73 0
-53 -91 0
-53 -107 0
-53 -126 0
-53 -146 0
-53 -182 0
-73 -91 0
-73 -107 0
-73 -126 0
-73 -146 0
-73 -182 0
-91 -107 0
-91 -126 0
-91 -146 0
-91 -182 0
-107 -126 0
-107 -146 0
-107 -182 0
-126 -146 0
-126 -182 0
-146 -182 0
-19 -36 0
-19 -54 0
-19 -74 0
-19 -92 0
-19 -108 0
-19 -127 0
-19 -164 0
-19 -183 0
-36 -54 0
-36 -74 0
-36 -92 0
-36 -108 0
-36 -127 0
-36 -164 0
-36 -183 0
-54 -74 0
-54 -92 0
-54 -108 0
-54 -127 0
-54 -164 0
-54 -183 0
-74 -92 0
-74 -108 0
-74 -127 0
-74 -164 0
-74 -183 0
-92 -108 0
-92 -127 0
-92 -164 0
-92 -183 0
-108 -127 0
-108 -164 0
-108 -183 0
-127 -164 0
-127 -183 0
-164 -183 0
